networks/zoo_42_252/zoo_42_252.txt
OKAY
Number of groups: 23
Flow 3: {1 21 0} {21 3 1} {3 2 2} {2 4 3} {4 25 4} 
Flow 23: {21 1 0} {1 17 1} {17 38 2} 
Flow 37: {3 13 0} {13 12 1} {12 14 2} 
Flow 44: {4 2 0} {2 23 1} 
Flow 46: {4 5 0} {5 8 1} {8 6 2} {6 27 3} 
Flow 60: {5 2 0} {2 7 1} {7 28 2} 
Flow 72: {7 8 0} {8 29 1} 
Flow 78: {7 2 0} {2 3 1} {3 21 2} {21 20 3} {20 41 4} 
Flow 82: {8 5 0} {5 4 1} 
Flow 84: {8 7 0} 
Flow 102: {9 15 0} {15 12 1} {12 33 2} 
Flow 104: {10 11 0} {11 16 1} {16 37 2} 
Flow 108: {20 17 0} {17 1 1} {1 22 2} 
Flow 112: {2 5 0} {5 26 1} 
Flow 116: {11 10 0} {10 9 1} {9 30 2} 
Flow 119: {16 15 0} {15 14 1} {14 35 2} 
Flow 133: {15 9 0} {9 10 1} {10 31 2} 
Flow 148: {14 12 0} {12 13 1} {13 3 2} {3 24 3} 
Flow 153: {14 15 0} {15 16 1} {16 11 2} {11 32 3} 
Flow 176: {12 20 0} {20 19 1} {19 40 2} 
Flow 200: {17 20 0} {20 12 1} {12 15 2} {15 36 3} 
Flow 211: {18 11 0} {11 19 1} {19 20 2} {20 21 3} {21 42 4} 
Flow 239: {19 11 0} {11 18 1} {18 39 2} 
Time taken running everything: 0 seconds
