networks/zoo_42_252/zoo_42_252.sol
<?xml version = "1.0" encoding="UTF-8" standalone="yes"?>
<CPLEXSolution version="1.2">
 <header
   problemName="networks/zoo_42_252/zoo_42_252.lp"
   solutionName="incumbent"
   solutionIndex="-1"
   objectiveValue="23"
   solutionTypeValue="3"
   solutionTypeString="primal"
   solutionStatusValue="101"
   solutionStatusString="integer optimal solution"
   solutionMethodString="mip"
   primalFeasible="1"
   dualFeasible="1"
   MIPNodes="0"
   MIPIterations="3800"
   writeLevel="3"/>
 <quality
   epInt="1.0000000000000001e-05"
   epRHS="9.9999999999999995e-07"
   maxIntInfeas="2.2204460492503131e-16"
   maxPrimalInfeas="2.000000165480742e-09"
   maxX="4"
   maxSlack="10"/>
 <variables>
  <variable name="Y(3,4)" index="85" value="1"/>
  <variable name="Y(23,17)" index="918" value="1"/>
  <variable name="Y(37,12)" index="1487" value="1"/>
  <variable name="Y(44,2)" index="1764" value="0.99999999999999978"/>
  <variable name="Y(46,6)" index="1850" value="1"/>
  <variable name="Y(60,7)" index="2425" value="1"/>
  <variable name="Y(72,8)" index="2918" value="1"/>
  <variable name="Y(78,20)" index="3176" value="1"/>
  <variable name="Y(82,5)" index="3325" value="1"/>
  <variable name="Y(84,8)" index="3410" value="1"/>
  <variable name="Y(102,12)" index="4152" value="1"/>
  <variable name="Y(104,16)" index="4238" value="1"/>
  <variable name="Y(108,1)" index="4387" value="1"/>
  <variable name="Y(112,5)" index="4555" value="1"/>
  <variable name="Y(116,9)" index="4723" value="1"/>
  <variable name="Y(119,14)" index="4851" value="1"/>
  <variable name="Y(133,10)" index="5421" value="1"/>
  <variable name="Y(148,3)" index="6029" value="1"/>
  <variable name="Y(153,11)" index="6242" value="1"/>
  <variable name="Y(176,19)" index="7193" value="1"/>
  <variable name="Y(200,15)" index="8173" value="1"/>
  <variable name="Y(211,21)" index="8630" value="1"/>
  <variable name="Y(239,18)" index="9775" value="1"/>
  <variable name="X(1,17,23)" index="10354" value="1"/>
  <variable name="X(1,21,3)" index="10586" value="1"/>
  <variable name="X(1,22,108)" index="10943" value="1"/>
  <variable name="X(2,3,78)" index="11165" value="1"/>
  <variable name="X(2,4,3)" index="11342" value="1"/>
  <variable name="X(2,5,112)" index="11703" value="1"/>
  <variable name="X(2,7,60)" index="11903" value="1"/>
  <variable name="X(2,23,44)" index="12139" value="0.99999999999999978"/>
  <variable name="X(3,2,3)" index="12350" value="1"/>
  <variable name="X(3,13,37)" index="12636" value="1"/>
  <variable name="X(3,21,78)" index="12929" value="1"/>
  <variable name="X(3,24,148)" index="13251" value="1"/>
  <variable name="X(4,2,44)" index="13399" value="1"/>
  <variable name="X(4,5,46)" index="13653" value="1"/>
  <variable name="X(4,25,3)" index="13862" value="1"/>
  <variable name="X(5,2,60)" index="14171" value="1"/>
  <variable name="X(5,4,82)" index="14445" value="1"/>
  <variable name="X(5,8,46)" index="14661" value="1"/>
  <variable name="X(5,26,112)" index="14979" value="1"/>
  <variable name="X(6,27,46)" index="15165" value="1"/>
  <variable name="X(7,2,78)" index="15449" value="1"/>
  <variable name="X(7,8,72)" index="15695" value="1"/>
  <variable name="X(7,28,60)" index="15935" value="1"/>
  <variable name="X(8,5,82)" index="16209" value="1"/>
  <variable name="X(8,6,46)" index="16425" value="1"/>
  <variable name="X(8,7,84)" index="16715" value="1"/>
  <variable name="X(8,29,72)" index="16955" value="1"/>
  <variable name="X(9,10,133)" index="17268" value="1"/>
  <variable name="X(9,15,102)" index="17489" value="1"/>
  <variable name="X(9,30,116)" index="17755" value="1"/>
  <variable name="X(10,9,116)" index="18007" value="1"/>
  <variable name="X(10,11,104)" index="18247" value="1"/>
  <variable name="X(10,31,133)" index="18528" value="1"/>
  <variable name="X(11,10,116)" index="18763" value="1"/>
  <variable name="X(11,16,104)" index="19003" value="1"/>
  <variable name="X(11,18,239)" index="19390" value="1"/>
  <variable name="X(11,19,211)" index="19614" value="1"/>
  <variable name="X(11,32,153)" index="19808" value="1"/>
  <variable name="X(12,13,148)" index="20055" value="1"/>
  <variable name="X(12,14,37)" index="20196" value="1"/>
  <variable name="X(12,15,200)" index="20611" value="1"/>
  <variable name="X(12,20,176)" index="20839" value="1"/>
  <variable name="X(12,33,102)" index="21017" value="1"/>
  <variable name="X(13,3,148)" index="21315" value="1"/>
  <variable name="X(13,12,37)" index="21456" value="1"/>
  <variable name="X(14,12,148)" index="21819" value="1"/>
  <variable name="X(14,15,153)" index="22076" value="1"/>
  <variable name="X(14,35,119)" index="22294" value="1"/>
  <variable name="X(15,9,133)" index="22560" value="1"/>
  <variable name="X(15,12,102)" index="22781" value="1"/>
  <variable name="X(15,14,119)" index="23050" value="1"/>
  <variable name="X(15,16,153)" index="23336" value="1"/>
  <variable name="X(15,36,200)" index="23635" value="1"/>
  <variable name="X(16,11,153)" index="23840" value="1"/>
  <variable name="X(16,15,119)" index="24058" value="1"/>
  <variable name="X(16,37,104)" index="24295" value="1"/>
  <variable name="X(17,1,108)" index="24551" value="1"/>
  <variable name="X(17,20,200)" index="24895" value="1"/>
  <variable name="X(17,38,23)" index="24970" value="1"/>
  <variable name="X(18,11,211)" index="25410" value="1"/>
  <variable name="X(18,39,239)" index="25690" value="1"/>
  <variable name="X(19,11,239)" index="25942" value="1"/>
  <variable name="X(19,20,211)" index="26166" value="1"/>
  <variable name="X(19,40,176)" index="26383" value="1"/>
  <variable name="X(20,12,200)" index="26659" value="1"/>
  <variable name="X(20,17,108)" index="26819" value="1"/>
  <variable name="X(20,19,176)" index="27139" value="1"/>
  <variable name="X(20,21,211)" index="27426" value="1"/>
  <variable name="X(20,41,78)" index="27545" value="1"/>
  <variable name="X(21,1,23)" index="27742" value="1"/>
  <variable name="X(21,3,3)" index="27974" value="1"/>
  <variable name="X(21,20,78)" index="28301" value="1"/>
  <variable name="X(21,42,211)" index="28686" value="1"/>
  <variable name="C(3,21)" index="28736" value="1"/>
  <variable name="C(3,3)" index="28737" value="2"/>
  <variable name="C(3,2)" index="28738" value="3"/>
  <variable name="C(3,4)" index="28739" value="4"/>
  <variable name="C(23,1)" index="28822" value="1"/>
  <variable name="C(23,17)" index="28823" value="2"/>
  <variable name="C(37,13)" index="28874" value="1"/>
  <variable name="C(37,12)" index="28875" value="2"/>
  <variable name="C(44,2)" index="28902" value="1"/>
  <variable name="C(46,4)" index="28906" value="-2.000000165480742e-09"/>
  <variable name="C(46,5)" index="28907" value="0.99999999799999983"/>
  <variable name="C(46,8)" index="28908" value="1.9999999979999998"/>
  <variable name="C(46,6)" index="28909" value="2.9999999979999998"/>
  <variable name="C(60,2)" index="28967" value="1"/>
  <variable name="C(60,7)" index="28968" value="2"/>
  <variable name="C(72,8)" index="29025" value="1"/>
  <variable name="C(78,2)" index="29058" value="1.0000000000000022"/>
  <variable name="C(78,3)" index="29059" value="2"/>
  <variable name="C(78,21)" index="29060" value="3"/>
  <variable name="C(78,20)" index="29061" value="4"/>
  <variable name="C(82,5)" index="29074" value="1"/>
  <variable name="C(102,15)" index="29205" value="1.0000000000000002"/>
  <variable name="C(102,12)" index="29206" value="2"/>
  <variable name="C(104,11)" index="29211" value="1"/>
  <variable name="C(104,16)" index="29212" value="2"/>
  <variable name="C(108,17)" index="29230" value="1"/>
  <variable name="C(108,1)" index="29231" value="2"/>
  <variable name="C(112,5)" index="29256" value="1"/>
  <variable name="C(116,10)" index="29282" value="1"/>
  <variable name="C(116,9)" index="29283" value="2"/>
  <variable name="C(119,15)" index="29292" value="1"/>
  <variable name="C(119,14)" index="29293" value="2"/>
  <variable name="C(133,9)" index="29346" value="1"/>
  <variable name="C(133,10)" index="29347" value="2"/>
  <variable name="C(148,12)" index="29395" value="1"/>
  <variable name="C(148,13)" index="29396" value="2"/>
  <variable name="C(148,3)" index="29397" value="3"/>
  <variable name="C(153,15)" index="29426" value="1"/>
  <variable name="C(153,16)" index="29427" value="2"/>
  <variable name="C(153,11)" index="29428" value="3"/>
  <variable name="C(176,20)" index="29518" value="1"/>
  <variable name="C(176,19)" index="29519" value="2"/>
  <variable name="C(200,20)" index="29639" value="1"/>
  <variable name="C(200,12)" index="29640" value="2"/>
  <variable name="C(200,15)" index="29641" value="3"/>
  <variable name="C(211,11)" index="29688" value="1.0000000000000022"/>
  <variable name="C(211,19)" index="29689" value="2"/>
  <variable name="C(211,20)" index="29690" value="3"/>
  <variable name="C(211,21)" index="29691" value="4"/>
  <variable name="C(239,11)" index="29805" value="1"/>
  <variable name="C(239,18)" index="29806" value="2"/>
 </variables>
</CPLEXSolution>
